32 33
27
3 3 11 30
3 4 14 28
3 5 23 0
3 6 29 0
3 7 17 0
3 8 26 25
3 9 20 24
3 10 11 2
3 11 4 22
3 12 29 20
3 13 14 15
3 14 29 6
3 15 14 0
3 18 11 12
3 22 4 0
3 23 17 7
3 24 20 0
3 25 26 0
3 27 23 5
4 3 7 30
4 4 0 18
4 5 7 7
4 6 7 1
4 7 7 23
4 10 0 23
4 11 7 12
4 18 0 0
